p wcnf 113 226 227 
1 -91 17 0 
1 86 78 0 
1 -52 -27 0 
1 75 2 0 
1 -13 -73 0 
1 -86 -94 0 
1 95 -39 0 
1 -27 110 0 
1 4 -84 0 
1 86 8 0 
1 29 -5 0 
1 1 -20 0 
1 -7 -91 0 
1 -97 -85 0 
1 100 -36 0 
1 -35 46 0 
1 -14 45 0 
1 15 -39 0 
1 97 92 0 
1 37 -106 0 
1 18 78 0 
1 41 35 0 
1 -48 -95 0 
1 -51 -68 0 
1 19 46 0 
1 109 -52 0 
1 37 -13 0 
1 -42 75 0 
1 12 39 0 
1 -47 94 0 
1 -107 -99 0 
1 26 -33 0 
1 59 -12 0 
1 -55 40 0 
1 109 4 0 
1 -40 -8 0 
1 -55 58 0 
1 -81 -46 0 
1 75 -80 0 
1 -34 53 0 
1 21 -82 0 
1 -76 66 0 
1 80 -38 0 
1 -96 -68 0 
1 -74 80 0 
1 -95 45 0 
1 -4 27 0 
1 4 -18 0 
1 -7 102 0 
1 -87 23 0 
1 -20 64 0 
1 48 53 0 
1 42 83 0 
1 94 -13 0 
1 -46 -59 0 
1 3 -25 0 
1 58 -37 0 
1 -80 -37 0 
1 -38 -43 0 
1 1 80 0 
1 -66 -84 0 
1 58 101 0 
1 -61 -96 0 
1 -60 18 0 
1 -24 -67 0 
1 78 110 0 
1 40 -105 0 
1 57 -46 0 
1 58 43 0 
1 -52 53 0 
1 -42 -32 0 
1 -94 -44 0 
1 -100 -1 0 
1 -2 -55 0 
1 77 -49 0 
1 -15 -44 0 
1 12 108 0 
1 49 -60 0 
1 -43 36 0 
1 100 -31 0 
1 6 -36 0 
1 -92 10 0 
1 48 28 0 
1 16 -61 0 
1 42 33 0 
1 101 47 0 
1 38 -68 0 
1 26 -76 0 
1 -16 -57 0 
1 94 -79 0 
1 9 -8 0 
1 85 83 0 
1 -89 -69 0 
1 94 -87 0 
1 -96 -84 0 
1 -64 59 0 
1 76 -6 0 
1 61 -75 0 
1 21 -98 0 
1 56 82 0 
1 -65 80 0 
1 97 -64 0 
1 108 31 0 
1 104 -108 0 
1 51 -28 0 
1 -9 84 0 
1 -42 -15 0 
1 27 -17 0 
1 -103 -64 0 
1 -17 24 0 
1 -51 43 0 
1 110 101 0 
1 60 50 0 
1 -43 42 0 
1 54 68 0 
1 -100 -61 0 
1 -89 -5 0 
1 -103 54 0 
1 -42 8 0 
1 61 11 0 
1 27 22 0 
1 -23 -106 0 
1 46 98 0 
1 -91 -9 0 
1 33 83 0 
1 45 21 0 
1 101 40 0 
1 54 66 0 
1 34 -53 0 
1 -64 -66 0 
1 35 30 0 
1 91 -44 0 
1 68 72 0 
1 -66 -79 0 
1 -49 -70 0 
1 -94 -72 0 
1 47 -102 0 
1 1 19 0 
1 57 -45 0 
1 -32 57 0 
1 -34 66 0 
1 71 78 0 
1 -60 -76 0 
1 98 21 0 
1 113 9 0 
1 65 103 0 
1 111 34 0 
1 -108 1 0 
1 -82 -39 0 
1 -91 63 0 
1 -108 98 0 
1 18 93 0 
1 54 2 0 
1 68 -55 0 
1 78 42 0 
1 113 -26 0 
1 -107 13 0 
1 -83 77 0 
1 -10 -24 0 
1 -73 90 0 
1 -36 -20 0 
1 -28 99 0 
1 37 -44 0 
1 -109 -18 0 
1 101 26 0 
1 -90 -7 0 
1 64 29 0 
1 -44 42 0 
1 -68 4 0 
1 -77 -60 0 
1 106 4 0 
1 -80 72 0 
1 -96 -71 0 
1 56 14 0 
1 31 -19 0 
1 77 40 0 
1 105 -47 0 
1 48 -39 0 
1 -24 -35 0 
1 12 -39 0 
1 98 -29 0 
1 26 72 0 
1 108 -84 0 
1 40 -77 0 
1 8 -67 0 
1 -68 -98 0 
1 69 -59 0 
1 -15 -55 0 
1 44 39 0 
1 105 -10 0 
1 26 18 0 
1 -106 62 0 
1 30 -87 0 
1 -25 -6 0 
1 -36 -113 0 
1 -109 87 0 
1 74 -39 0 
1 -80 56 0 
1 106 85 0 
1 51 63 0 
1 57 -50 0 
1 -74 -65 0 
1 84 -95 0 
1 44 51 0 
1 -17 84 0 
1 75 -67 0 
1 108 54 0 
1 63 -54 0 
1 -96 65 0 
1 9 41 0 
1 102 -88 0 
1 -40 103 0 
1 -52 -98 0 
1 -96 108 0 
1 -109 -68 0 
1 6 -104 0 
1 76 -5 0 
1 36 53 0 
1 -45 109 0 
1 -89 86 0 
1 -5 101 0 
1 -85 -64 0 
1 -63 -109 0 
1 -60 59 0 
1 -39 10 0 
1 -5 68 0 
